p cnf 529 1
529 0
w 1 0.944526
w 2 1 0
w 2 -1 1
w 3 2 0
w 3 -2 1
w 4 3 0.0647748
w 4 -3 0.898857
w 5 4 1
w 5 -4 0
w 6 5 1
w 6 -5 0
w 7 6 0
w 7 -6 1
w 8 7 1
w 8 -7 0
w 9 8 0
w 9 -8 1
w 10 9 1
w 10 -9 0
w 11 10 0.518054
w 11 -10 0.0823396
w 12 11 0
w 12 -11 1
w 13 12 1
w 13 -12 0
w 14 13 0
w 14 -13 1
w 15 14 0.542918
w 15 -14 0.814943
w 16 15 0
w 16 -15 1
w 17 16 0.976693
w 17 -16 0.314793
w 18 17 0.87555
w 18 -17 0.605442
w 19 18 1
w 19 -18 0
w 20 19 0.224545
w 20 -19 0.357149
w 21 20 0.459516
w 21 -20 0.526552
w 22 21 0
w 22 -21 1
w 23 22 0
w 23 -22 1
w 24 1 1
w 24 -1 0
w 25 24 2 0.288464
w 25 24 -2 0.332953
w 25 -24 2 0.885967
w 25 -24 -2 0.506217
w 26 25 3 1
w 26 25 -3 1
w 26 -25 3 0
w 26 -25 -3 0
w 27 26 4 1
w 27 26 -4 0
w 27 -26 4 1
w 27 -26 -4 1
w 28 27 5 1
w 28 27 -5 1
w 28 -27 5 1
w 28 -27 -5 0
w 29 28 6 0.0606177
w 29 28 -6 0.048
w 29 -28 6 0.242208
w 29 -28 -6 0.58717
w 30 29 7 1
w 30 29 -7 0
w 30 -29 7 1
w 30 -29 -7 1
w 31 30 8 0.759476
w 31 30 -8 0.364717
w 31 -30 8 0.161589
w 31 -30 -8 0.645443
w 32 31 9 0.364959
w 32 31 -9 0.452921
w 32 -31 9 0.920069
w 32 -31 -9 0.383273
w 33 32 10 1
w 33 32 -10 0
w 33 -32 10 0
w 33 -32 -10 1
w 34 33 11 0
w 34 33 -11 0
w 34 -33 11 1
w 34 -33 -11 0
w 35 34 12 0
w 35 34 -12 1
w 35 -34 12 0
w 35 -34 -12 0
w 36 35 13 0
w 36 35 -13 1
w 36 -35 13 0
w 36 -35 -13 1
w 37 36 14 1
w 37 36 -14 1
w 37 -36 14 1
w 37 -36 -14 0
w 38 37 15 1
w 38 37 -15 0
w 38 -37 15 1
w 38 -37 -15 1
w 39 38 16 1
w 39 38 -16 1
w 39 -38 16 1
w 39 -38 -16 0
w 40 39 17 1
w 40 39 -17 0
w 40 -39 17 0
w 40 -39 -17 1
w 41 40 18 0
w 41 40 -18 0
w 41 -40 18 0
w 41 -40 -18 1
w 42 41 19 0
w 42 41 -19 1
w 42 -41 19 0
w 42 -41 -19 0
w 43 42 20 0.733345
w 43 42 -20 0.85465
w 43 -42 20 0.410682
w 43 -42 -20 0.00201189
w 44 43 21 1
w 44 43 -21 0
w 44 -43 21 1
w 44 -43 -21 0
w 45 44 22 0
w 45 44 -22 1
w 45 -44 22 0
w 45 -44 -22 0
w 46 45 23 0.739008
w 46 45 -23 0.494516
w 46 -45 23 0.299036
w 46 -45 -23 0.726033
w 47 24 0
w 47 -24 1
w 48 47 25 0
w 48 47 -25 1
w 48 -47 25 0
w 48 -47 -25 1
w 49 48 26 0
w 49 48 -26 1
w 49 -48 26 1
w 49 -48 -26 0
w 50 49 27 0
w 50 49 -27 1
w 50 -49 27 1
w 50 -49 -27 0
w 51 50 28 1
w 51 50 -28 1
w 51 -50 28 0
w 51 -50 -28 0
w 52 51 29 0.296657
w 52 51 -29 0.801257
w 52 -51 29 0.0975743
w 52 -51 -29 0.101494
w 53 52 30 1
w 53 52 -30 0
w 53 -52 30 1
w 53 -52 -30 1
w 54 53 31 0
w 54 53 -31 0
w 54 -53 31 1
w 54 -53 -31 0
w 55 54 32 0.979441
w 55 54 -32 0.393794
w 55 -54 32 0.607765
w 55 -54 -32 0.332959
w 56 55 33 1
w 56 55 -33 0
w 56 -55 33 0
w 56 -55 -33 0
w 57 56 34 1
w 57 56 -34 1
w 57 -56 34 1
w 57 -56 -34 0
w 58 57 35 1
w 58 57 -35 0
w 58 -57 35 0
w 58 -57 -35 0
w 59 58 36 1
w 59 58 -36 1
w 59 -58 36 1
w 59 -58 -36 0
w 60 59 37 0
w 60 59 -37 0
w 60 -59 37 1
w 60 -59 -37 0
w 61 60 38 0
w 61 60 -38 1
w 61 -60 38 1
w 61 -60 -38 0
w 62 61 39 0
w 62 61 -39 0
w 62 -61 39 1
w 62 -61 -39 0
w 63 62 40 0
w 63 62 -40 1
w 63 -62 40 1
w 63 -62 -40 1
w 64 63 41 1
w 64 63 -41 1
w 64 -63 41 0
w 64 -63 -41 1
w 65 64 42 1
w 65 64 -42 0
w 65 -64 42 0
w 65 -64 -42 0
w 66 65 43 0
w 66 65 -43 1
w 66 -65 43 1
w 66 -65 -43 0
w 67 66 44 1
w 67 66 -44 0
w 67 -66 44 0
w 67 -66 -44 1
w 68 67 45 0
w 68 67 -45 1
w 68 -67 45 1
w 68 -67 -45 0
w 69 68 46 1
w 69 68 -46 1
w 69 -68 46 0
w 69 -68 -46 1
w 70 47 1
w 70 -47 0
w 71 70 48 1
w 71 70 -48 0
w 71 -70 48 1
w 71 -70 -48 1
w 72 71 49 0.408214
w 72 71 -49 0.728095
w 72 -71 49 0.453695
w 72 -71 -49 0.705161
w 73 72 50 0
w 73 72 -50 1
w 73 -72 50 0
w 73 -72 -50 0
w 74 73 51 0.250581
w 74 73 -51 0.492317
w 74 -73 51 0.206268
w 74 -73 -51 0.786393
w 75 74 52 0
w 75 74 -52 0
w 75 -74 52 0
w 75 -74 -52 1
w 76 75 53 0.893497
w 76 75 -53 0.118084
w 76 -75 53 0.0803955
w 76 -75 -53 0.638632
w 77 76 54 0.248377
w 77 76 -54 0.420644
w 77 -76 54 0.85251
w 77 -76 -54 0.720372
w 78 77 55 0.697051
w 78 77 -55 0.128586
w 78 -77 55 0.502971
w 78 -77 -55 0.150747
w 79 78 56 0.137108
w 79 78 -56 0.0602271
w 79 -78 56 0.0590189
w 79 -78 -56 0.480808
w 80 79 57 1
w 80 79 -57 0
w 80 -79 57 0
w 80 -79 -57 0
w 81 80 58 0
w 81 80 -58 0
w 81 -80 58 1
w 81 -80 -58 1
w 82 81 59 0.33379
w 82 81 -59 0.0241094
w 82 -81 59 0.918518
w 82 -81 -59 0.414186
w 83 82 60 1
w 83 82 -60 1
w 83 -82 60 0
w 83 -82 -60 1
w 84 83 61 1
w 84 83 -61 1
w 84 -83 61 1
w 84 -83 -61 0
w 85 84 62 1
w 85 84 -62 1
w 85 -84 62 1
w 85 -84 -62 0
w 86 85 63 0.747628
w 86 85 -63 0.411293
w 86 -85 63 0.710538
w 86 -85 -63 0.353271
w 87 86 64 1
w 87 86 -64 1
w 87 -86 64 1
w 87 -86 -64 0
w 88 87 65 0
w 88 87 -65 0
w 88 -87 65 1
w 88 -87 -65 1
w 89 88 66 1
w 89 88 -66 0
w 89 -88 66 1
w 89 -88 -66 1
w 90 89 67 0
w 90 89 -67 0
w 90 -89 67 0
w 90 -89 -67 1
w 91 90 68 1
w 91 90 -68 0
w 91 -90 68 1
w 91 -90 -68 0
w 92 91 69 0.0774106
w 92 91 -69 0.0432031
w 92 -91 69 0.602091
w 92 -91 -69 0.430682
w 93 70 0
w 93 -70 1
w 94 93 71 0
w 94 93 -71 0
w 94 -93 71 1
w 94 -93 -71 1
w 95 94 72 0
w 95 94 -72 0
w 95 -94 72 0
w 95 -94 -72 1
w 96 95 73 1
w 96 95 -73 0
w 96 -95 73 0
w 96 -95 -73 0
w 97 96 74 0.115693
w 97 96 -74 0.885356
w 97 -96 74 0.369822
w 97 -96 -74 0.811174
w 98 97 75 0
w 98 97 -75 0
w 98 -97 75 1
w 98 -97 -75 1
w 99 98 76 1
w 99 98 -76 1
w 99 -98 76 1
w 99 -98 -76 0
w 100 99 77 0
w 100 99 -77 1
w 100 -99 77 0
w 100 -99 -77 0
w 101 100 78 0
w 101 100 -78 1
w 101 -100 78 1
w 101 -100 -78 0
w 102 101 79 1
w 102 101 -79 0
w 102 -101 79 0
w 102 -101 -79 1
w 103 102 80 0
w 103 102 -80 1
w 103 -102 80 1
w 103 -102 -80 1
w 104 103 81 1
w 104 103 -81 0
w 104 -103 81 0
w 104 -103 -81 1
w 105 104 82 1
w 105 104 -82 0
w 105 -104 82 1
w 105 -104 -82 1
w 106 105 83 0.65268
w 106 105 -83 0.102303
w 106 -105 83 0.90844
w 106 -105 -83 0.174866
w 107 106 84 0.241418
w 107 106 -84 0.29423
w 107 -106 84 0.884885
w 107 -106 -84 0.21866
w 108 107 85 0
w 108 107 -85 1
w 108 -107 85 1
w 108 -107 -85 0
w 109 108 86 0
w 109 108 -86 1
w 109 -108 86 1
w 109 -108 -86 0
w 110 109 87 1
w 110 109 -87 1
w 110 -109 87 0
w 110 -109 -87 1
w 111 110 88 1
w 111 110 -88 0
w 111 -110 88 0
w 111 -110 -88 0
w 112 111 89 0
w 112 111 -89 0
w 112 -111 89 1
w 112 -111 -89 1
w 113 112 90 0
w 113 112 -90 0
w 113 -112 90 1
w 113 -112 -90 0
w 114 113 91 0.874067
w 114 113 -91 0.701078
w 114 -113 91 0.825032
w 114 -113 -91 0.726676
w 115 114 92 1
w 115 114 -92 1
w 115 -114 92 0
w 115 -114 -92 0
w 116 93 0.627028
w 116 -93 0.75271
w 117 116 94 0.347956
w 117 116 -94 0.657313
w 117 -116 94 0.24063
w 117 -116 -94 0.699063
w 118 117 95 1
w 118 117 -95 0
w 118 -117 95 1
w 118 -117 -95 1
w 119 118 96 1
w 119 118 -96 0
w 119 -118 96 0
w 119 -118 -96 1
w 120 119 97 0.15186
w 120 119 -97 0.915297
w 120 -119 97 0.696474
w 120 -119 -97 0.852938
w 121 120 98 1
w 121 120 -98 1
w 121 -120 98 1
w 121 -120 -98 0
w 122 121 99 1
w 122 121 -99 1
w 122 -121 99 0
w 122 -121 -99 0
w 123 122 100 0
w 123 122 -100 1
w 123 -122 100 0
w 123 -122 -100 0
w 124 123 101 0
w 124 123 -101 1
w 124 -123 101 0
w 124 -123 -101 1
w 125 124 102 0
w 125 124 -102 0
w 125 -124 102 1
w 125 -124 -102 0
w 126 125 103 0
w 126 125 -103 0
w 126 -125 103 1
w 126 -125 -103 0
w 127 126 104 0.0786903
w 127 126 -104 0.605303
w 127 -126 104 0.882756
w 127 -126 -104 0.767539
w 128 127 105 0
w 128 127 -105 0
w 128 -127 105 1
w 128 -127 -105 1
w 129 128 106 1
w 129 128 -106 0
w 129 -128 106 0
w 129 -128 -106 1
w 130 129 107 0.80674
w 130 129 -107 0.137337
w 130 -129 107 0.678204
w 130 -129 -107 0.969682
w 131 130 108 1
w 131 130 -108 0
w 131 -130 108 1
w 131 -130 -108 1
w 132 131 109 1
w 132 131 -109 0
w 132 -131 109 0
w 132 -131 -109 1
w 133 132 110 1
w 133 132 -110 1
w 133 -132 110 1
w 133 -132 -110 0
w 134 133 111 0.682257
w 134 133 -111 0.482549
w 134 -133 111 0.118543
w 134 -133 -111 0.815601
w 135 134 112 1
w 135 134 -112 1
w 135 -134 112 0
w 135 -134 -112 1
w 136 135 113 0
w 136 135 -113 0
w 136 -135 113 0
w 136 -135 -113 1
w 137 136 114 0.39886
w 137 136 -114 0.349723
w 137 -136 114 0.0763796
w 137 -136 -114 0.739221
w 138 137 115 0
w 138 137 -115 0
w 138 -137 115 0
w 138 -137 -115 1
w 139 116 0.847963
w 139 -116 0.708341
w 140 139 117 1
w 140 139 -117 0
w 140 -139 117 1
w 140 -139 -117 1
w 141 140 118 0
w 141 140 -118 1
w 141 -140 118 1
w 141 -140 -118 1
w 142 141 119 0
w 142 141 -119 0
w 142 -141 119 1
w 142 -141 -119 0
w 143 142 120 1
w 143 142 -120 0
w 143 -142 120 0
w 143 -142 -120 0
w 144 143 121 1
w 144 143 -121 1
w 144 -143 121 1
w 144 -143 -121 0
w 145 144 122 0
w 145 144 -122 0
w 145 -144 122 0
w 145 -144 -122 1
w 146 145 123 1
w 146 145 -123 0
w 146 -145 123 0
w 146 -145 -123 0
w 147 146 124 0
w 147 146 -124 0
w 147 -146 124 1
w 147 -146 -124 1
w 148 147 125 1
w 148 147 -125 1
w 148 -147 125 0
w 148 -147 -125 0
w 149 148 126 1
w 149 148 -126 0
w 149 -148 126 1
w 149 -148 -126 0
w 150 149 127 0
w 150 149 -127 1
w 150 -149 127 1
w 150 -149 -127 1
w 151 150 128 0.784168
w 151 150 -128 0.969249
w 151 -150 128 0.498778
w 151 -150 -128 0.73256
w 152 151 129 0.705436
w 152 151 -129 0.779518
w 152 -151 129 0.392337
w 152 -151 -129 0.0687606
w 153 152 130 0
w 153 152 -130 0
w 153 -152 130 1
w 153 -152 -130 1
w 154 153 131 1
w 154 153 -131 1
w 154 -153 131 0
w 154 -153 -131 1
w 155 154 132 0.859969
w 155 154 -132 0.891919
w 155 -154 132 0.999908
w 155 -154 -132 0.545012
w 156 155 133 1
w 156 155 -133 0
w 156 -155 133 0
w 156 -155 -133 0
w 157 156 134 0
w 157 156 -134 1
w 157 -156 134 1
w 157 -156 -134 1
w 158 157 135 1
w 158 157 -135 1
w 158 -157 135 0
w 158 -157 -135 0
w 159 158 136 0
w 159 158 -136 0
w 159 -158 136 0
w 159 -158 -136 1
w 160 159 137 1
w 160 159 -137 1
w 160 -159 137 1
w 160 -159 -137 0
w 161 160 138 0.809653
w 161 160 -138 0.162889
w 161 -160 138 0.874759
w 161 -160 -138 0.809561
w 162 139 0
w 162 -139 1
w 163 162 140 0
w 163 162 -140 1
w 163 -162 140 0
w 163 -162 -140 0
w 164 163 141 1
w 164 163 -141 0
w 164 -163 141 1
w 164 -163 -141 0
w 165 164 142 0.107401
w 165 164 -142 0.177055
w 165 -164 142 0.628267
w 165 -164 -142 0.860202
w 166 165 143 0
w 166 165 -143 1
w 166 -165 143 1
w 166 -165 -143 0
w 167 166 144 0.808834
w 167 166 -144 0.103442
w 167 -166 144 0.886391
w 167 -166 -144 0.618487
w 168 167 145 0
w 168 167 -145 1
w 168 -167 145 1
w 168 -167 -145 1
w 169 168 146 0
w 169 168 -146 1
w 169 -168 146 0
w 169 -168 -146 0
w 170 169 147 0
w 170 169 -147 1
w 170 -169 147 0
w 170 -169 -147 0
w 171 170 148 1
w 171 170 -148 0
w 171 -170 148 0
w 171 -170 -148 0
w 172 171 149 1
w 172 171 -149 0
w 172 -171 149 1
w 172 -171 -149 0
w 173 172 150 0
w 173 172 -150 0
w 173 -172 150 0
w 173 -172 -150 1
w 174 173 151 0
w 174 173 -151 1
w 174 -173 151 1
w 174 -173 -151 1
w 175 174 152 1
w 175 174 -152 1
w 175 -174 152 0
w 175 -174 -152 0
w 176 175 153 0
w 176 175 -153 0
w 176 -175 153 0
w 176 -175 -153 1
w 177 176 154 0
w 177 176 -154 0
w 177 -176 154 1
w 177 -176 -154 0
w 178 177 155 1
w 178 177 -155 1
w 178 -177 155 0
w 178 -177 -155 1
w 179 178 156 0.707247
w 179 178 -156 0.0903424
w 179 -178 156 0.638573
w 179 -178 -156 0.296246
w 180 179 157 0
w 180 179 -157 0
w 180 -179 157 0
w 180 -179 -157 1
w 181 180 158 0
w 181 180 -158 1
w 181 -180 158 1
w 181 -180 -158 0
w 182 181 159 1
w 182 181 -159 0
w 182 -181 159 1
w 182 -181 -159 0
w 183 182 160 1
w 183 182 -160 0
w 183 -182 160 1
w 183 -182 -160 1
w 184 183 161 0
w 184 183 -161 0
w 184 -183 161 0
w 184 -183 -161 1
w 185 162 0.42818
w 185 -162 0.0671145
w 186 185 163 1
w 186 185 -163 1
w 186 -185 163 0
w 186 -185 -163 1
w 187 186 164 0.754824
w 187 186 -164 0.719968
w 187 -186 164 0.514929
w 187 -186 -164 0.927192
w 188 187 165 1
w 188 187 -165 1
w 188 -187 165 1
w 188 -187 -165 0
w 189 188 166 1
w 189 188 -166 1
w 189 -188 166 1
w 189 -188 -166 0
w 190 189 167 1
w 190 189 -167 0
w 190 -189 167 0
w 190 -189 -167 0
w 191 190 168 1
w 191 190 -168 0
w 191 -190 168 0
w 191 -190 -168 1
w 192 191 169 1
w 192 191 -169 0
w 192 -191 169 0
w 192 -191 -169 1
w 193 192 170 0.35918
w 193 192 -170 0.777888
w 193 -192 170 0.443979
w 193 -192 -170 0.286372
w 194 193 171 0
w 194 193 -171 1
w 194 -193 171 0
w 194 -193 -171 0
w 195 194 172 1
w 195 194 -172 1
w 195 -194 172 0
w 195 -194 -172 0
w 196 195 173 0
w 196 195 -173 0
w 196 -195 173 1
w 196 -195 -173 0
w 197 196 174 1
w 197 196 -174 1
w 197 -196 174 1
w 197 -196 -174 0
w 198 197 175 1
w 198 197 -175 0
w 198 -197 175 0
w 198 -197 -175 0
w 199 198 176 0
w 199 198 -176 1
w 199 -198 176 1
w 199 -198 -176 0
w 200 199 177 1
w 200 199 -177 0
w 200 -199 177 0
w 200 -199 -177 0
w 201 200 178 0.969209
w 201 200 -178 0.873253
w 201 -200 178 0.287381
w 201 -200 -178 0.607425
w 202 201 179 0
w 202 201 -179 0
w 202 -201 179 0
w 202 -201 -179 1
w 203 202 180 1
w 203 202 -180 0
w 203 -202 180 1
w 203 -202 -180 0
w 204 203 181 1
w 204 203 -181 1
w 204 -203 181 1
w 204 -203 -181 0
w 205 204 182 0.787597
w 205 204 -182 0.26803
w 205 -204 182 0.477194
w 205 -204 -182 0.786528
w 206 205 183 0
w 206 205 -183 1
w 206 -205 183 0
w 206 -205 -183 0
w 207 206 184 0
w 207 206 -184 1
w 207 -206 184 1
w 207 -206 -184 0
w 208 185 1
w 208 -185 0
w 209 208 186 0.535398
w 209 208 -186 0.603324
w 209 -208 186 0.43333
w 209 -208 -186 0.442497
w 210 209 187 0
w 210 209 -187 0
w 210 -209 187 0
w 210 -209 -187 1
w 211 210 188 1
w 211 210 -188 0
w 211 -210 188 1
w 211 -210 -188 1
w 212 211 189 0.159896
w 212 211 -189 0.465596
w 212 -211 189 0.776785
w 212 -211 -189 0.645076
w 213 212 190 0
w 213 212 -190 0
w 213 -212 190 1
w 213 -212 -190 1
w 214 213 191 1
w 214 213 -191 0
w 214 -213 191 0
w 214 -213 -191 0
w 215 214 192 0.12998
w 215 214 -192 0.151119
w 215 -214 192 0.571059
w 215 -214 -192 0.56331
w 216 215 193 1
w 216 215 -193 0
w 216 -215 193 1
w 216 -215 -193 1
w 217 216 194 1
w 217 216 -194 0
w 217 -216 194 1
w 217 -216 -194 1
w 218 217 195 0
w 218 217 -195 1
w 218 -217 195 1
w 218 -217 -195 1
w 219 218 196 0.590631
w 219 218 -196 0.11012
w 219 -218 196 0.684353
w 219 -218 -196 0.836148
w 220 219 197 1
w 220 219 -197 1
w 220 -219 197 0
w 220 -219 -197 1
w 221 220 198 0.226064
w 221 220 -198 0.867202
w 221 -220 198 0.951608
w 221 -220 -198 0.797123
w 222 221 199 1
w 222 221 -199 0
w 222 -221 199 0
w 222 -221 -199 0
w 223 222 200 0.496682
w 223 222 -200 0.382816
w 223 -222 200 0.971157
w 223 -222 -200 0.796238
w 224 223 201 1
w 224 223 -201 0
w 224 -223 201 0
w 224 -223 -201 0
w 225 224 202 0
w 225 224 -202 1
w 225 -224 202 0
w 225 -224 -202 1
w 226 225 203 0
w 226 225 -203 1
w 226 -225 203 0
w 226 -225 -203 0
w 227 226 204 1
w 227 226 -204 1
w 227 -226 204 0
w 227 -226 -204 1
w 228 227 205 0.0189927
w 228 227 -205 0.564363
w 228 -227 205 0.911569
w 228 -227 -205 0.418779
w 229 228 206 1
w 229 228 -206 0
w 229 -228 206 0
w 229 -228 -206 1
w 230 229 207 1
w 230 229 -207 0
w 230 -229 207 0
w 230 -229 -207 0
w 231 208 1
w 231 -208 0
w 232 231 209 0
w 232 231 -209 1
w 232 -231 209 1
w 232 -231 -209 1
w 233 232 210 0.989343
w 233 232 -210 0.0643727
w 233 -232 210 0.82017
w 233 -232 -210 0.710622
w 234 233 211 0
w 234 233 -211 1
w 234 -233 211 1
w 234 -233 -211 1
w 235 234 212 1
w 235 234 -212 1
w 235 -234 212 0
w 235 -234 -212 1
w 236 235 213 0
w 236 235 -213 1
w 236 -235 213 0
w 236 -235 -213 1
w 237 236 214 0
w 237 236 -214 1
w 237 -236 214 0
w 237 -236 -214 1
w 238 237 215 0.338439
w 238 237 -215 0.325347
w 238 -237 215 0.952598
w 238 -237 -215 0.13577
w 239 238 216 1
w 239 238 -216 0
w 239 -238 216 0
w 239 -238 -216 0
w 240 239 217 0
w 240 239 -217 1
w 240 -239 217 1
w 240 -239 -217 0
w 241 240 218 0
w 241 240 -218 1
w 241 -240 218 0
w 241 -240 -218 0
w 242 241 219 0
w 242 241 -219 1
w 242 -241 219 0
w 242 -241 -219 0
w 243 242 220 0.184792
w 243 242 -220 0.514761
w 243 -242 220 0.519912
w 243 -242 -220 0.296975
w 244 243 221 0
w 244 243 -221 1
w 244 -243 221 1
w 244 -243 -221 0
w 245 244 222 0.356613
w 245 244 -222 0.194264
w 245 -244 222 0.868193
w 245 -244 -222 0.00917706
w 246 245 223 0
w 246 245 -223 1
w 246 -245 223 0
w 246 -245 -223 0
w 247 246 224 1
w 247 246 -224 1
w 247 -246 224 0
w 247 -246 -224 1
w 248 247 225 0.751001
w 248 247 -225 0.762985
w 248 -247 225 0.919225
w 248 -247 -225 0.737384
w 249 248 226 1
w 249 248 -226 1
w 249 -248 226 0
w 249 -248 -226 0
w 250 249 227 0
w 250 249 -227 1
w 250 -249 227 1
w 250 -249 -227 0
w 251 250 228 0.485504
w 251 250 -228 0.226167
w 251 -250 228 0.726679
w 251 -250 -228 0.494681
w 252 251 229 0.606796
w 252 251 -229 0.455525
w 252 -251 229 0.761876
w 252 -251 -229 0.433592
w 253 252 230 1
w 253 252 -230 0
w 253 -252 230 0
w 253 -252 -230 0
w 254 231 1
w 254 -231 0
w 255 254 232 1
w 255 254 -232 1
w 255 -254 232 0
w 255 -254 -232 1
w 256 255 233 0.486363
w 256 255 -233 0.676223
w 256 -255 233 0.24383
w 256 -255 -233 0.200582
w 257 256 234 0
w 257 256 -234 1
w 257 -256 234 0
w 257 -256 -234 0
w 258 257 235 0.972075
w 258 257 -235 0.85231
w 258 -257 235 0.309657
w 258 -257 -235 0.724552
w 259 258 236 0
w 259 258 -236 1
w 259 -258 236 0
w 259 -258 -236 1
w 260 259 237 0
w 260 259 -237 1
w 260 -259 237 1
w 260 -259 -237 0
w 261 260 238 0
w 261 260 -238 1
w 261 -260 238 1
w 261 -260 -238 1
w 262 261 239 0.41944
w 262 261 -239 0.0306725
w 262 -261 239 0.019773
w 262 -261 -239 0.620022
w 263 262 240 1
w 263 262 -240 1
w 263 -262 240 0
w 263 -262 -240 1
w 264 263 241 1
w 264 263 -241 0
w 264 -263 241 1
w 264 -263 -241 0
w 265 264 242 0.67364
w 265 264 -242 0.616661
w 265 -264 242 0.290623
w 265 -264 -242 0.129837
w 266 265 243 0
w 266 265 -243 1
w 266 -265 243 1
w 266 -265 -243 1
w 267 266 244 0
w 267 266 -244 0
w 267 -266 244 1
w 267 -266 -244 1
w 268 267 245 1
w 268 267 -245 0
w 268 -267 245 1
w 268 -267 -245 1
w 269 268 246 1
w 269 268 -246 0
w 269 -268 246 0
w 269 -268 -246 0
w 270 269 247 0
w 270 269 -247 1
w 270 -269 247 1
w 270 -269 -247 1
w 271 270 248 1
w 271 270 -248 0
w 271 -270 248 0
w 271 -270 -248 1
w 272 271 249 1
w 272 271 -249 1
w 272 -271 249 0
w 272 -271 -249 0
w 273 272 250 0
w 273 272 -250 0
w 273 -272 250 1
w 273 -272 -250 1
w 274 273 251 1
w 274 273 -251 1
w 274 -273 251 0
w 274 -273 -251 1
w 275 274 252 1
w 275 274 -252 0
w 275 -274 252 1
w 275 -274 -252 0
w 276 275 253 0
w 276 275 -253 0
w 276 -275 253 0
w 276 -275 -253 1
w 277 254 0.388651
w 277 -254 0.319416
w 278 277 255 0
w 278 277 -255 1
w 278 -277 255 1
w 278 -277 -255 1
w 279 278 256 0.713452
w 279 278 -256 0.777397
w 279 -278 256 0.273503
w 279 -278 -256 0.590564
w 280 279 257 0
w 280 279 -257 0
w 280 -279 257 1
w 280 -279 -257 0
w 281 280 258 1
w 281 280 -258 0
w 281 -280 258 1
w 281 -280 -258 1
w 282 281 259 1
w 282 281 -259 1
w 282 -281 259 0
w 282 -281 -259 1
w 283 282 260 1
w 283 282 -260 1
w 283 -282 260 1
w 283 -282 -260 0
w 284 283 261 0
w 284 283 -261 1
w 284 -283 261 1
w 284 -283 -261 1
w 285 284 262 1
w 285 284 -262 1
w 285 -284 262 0
w 285 -284 -262 1
w 286 285 263 0
w 286 285 -263 1
w 286 -285 263 0
w 286 -285 -263 0
w 287 286 264 0.268721
w 287 286 -264 0.858604
w 287 -286 264 0.757131
w 287 -286 -264 0.574451
w 288 287 265 0.820351
w 288 287 -265 0.613151
w 288 -287 265 0.392307
w 288 -287 -265 0.78097
w 289 288 266 0.0507031
w 289 288 -266 0.430343
w 289 -288 266 0.172011
w 289 -288 -266 0.0977504
w 290 289 267 0
w 290 289 -267 1
w 290 -289 267 0
w 290 -289 -267 1
w 291 290 268 0
w 291 290 -268 0
w 291 -290 268 1
w 291 -290 -268 0
w 292 291 269 0
w 292 291 -269 1
w 292 -291 269 1
w 292 -291 -269 1
w 293 292 270 0.346784
w 293 292 -270 0.344178
w 293 -292 270 0.779684
w 293 -292 -270 0.103914
w 294 293 271 0.625539
w 294 293 -271 0.924265
w 294 -293 271 0.53178
w 294 -293 -271 0.0178458
w 295 294 272 1
w 295 294 -272 1
w 295 -294 272 0
w 295 -294 -272 0
w 296 295 273 0
w 296 295 -273 1
w 296 -295 273 1
w 296 -295 -273 0
w 297 296 274 1
w 297 296 -274 0
w 297 -296 274 1
w 297 -296 -274 1
w 298 297 275 1
w 298 297 -275 0
w 298 -297 275 0
w 298 -297 -275 0
w 299 298 276 0
w 299 298 -276 1
w 299 -298 276 1
w 299 -298 -276 0
w 300 277 0
w 300 -277 1
w 301 300 278 1
w 301 300 -278 0
w 301 -300 278 0
w 301 -300 -278 1
w 302 301 279 0.0812193
w 302 301 -279 0.789364
w 302 -301 279 0.101866
w 302 -301 -279 0.615928
w 303 302 280 0
w 303 302 -280 1
w 303 -302 280 1
w 303 -302 -280 1
w 304 303 281 0
w 304 303 -281 0
w 304 -303 281 0
w 304 -303 -281 1
w 305 304 282 0
w 305 304 -282 1
w 305 -304 282 0
w 305 -304 -282 0
w 306 305 283 0
w 306 305 -283 1
w 306 -305 283 0
w 306 -305 -283 1
w 307 306 284 1
w 307 306 -284 1
w 307 -306 284 0
w 307 -306 -284 0
w 308 307 285 1
w 308 307 -285 0
w 308 -307 285 1
w 308 -307 -285 0
w 309 308 286 0
w 309 308 -286 0
w 309 -308 286 1
w 309 -308 -286 1
w 310 309 287 1
w 310 309 -287 1
w 310 -309 287 0
w 310 -309 -287 1
w 311 310 288 0
w 311 310 -288 0
w 311 -310 288 1
w 311 -310 -288 0
w 312 311 289 1
w 312 311 -289 0
w 312 -311 289 0
w 312 -311 -289 0
w 313 312 290 0.158492
w 313 312 -290 0.191838
w 313 -312 290 0.0648125
w 313 -312 -290 0.357591
w 314 313 291 1
w 314 313 -291 1
w 314 -313 291 0
w 314 -313 -291 0
w 315 314 292 1
w 315 314 -292 0
w 315 -314 292 1
w 315 -314 -292 0
w 316 315 293 0
w 316 315 -293 1
w 316 -315 293 0
w 316 -315 -293 0
w 317 316 294 0
w 317 316 -294 1
w 317 -316 294 0
w 317 -316 -294 1
w 318 317 295 0.555769
w 318 317 -295 0.617691
w 318 -317 295 0.814209
w 318 -317 -295 0.721217
w 319 318 296 0
w 319 318 -296 1
w 319 -318 296 0
w 319 -318 -296 0
w 320 319 297 1
w 320 319 -297 1
w 320 -319 297 0
w 320 -319 -297 0
w 321 320 298 0
w 321 320 -298 0
w 321 -320 298 1
w 321 -320 -298 0
w 322 321 299 1
w 322 321 -299 0
w 322 -321 299 0
w 322 -321 -299 0
w 323 300 1
w 323 -300 0
w 324 323 301 1
w 324 323 -301 1
w 324 -323 301 0
w 324 -323 -301 1
w 325 324 302 1
w 325 324 -302 0
w 325 -324 302 0
w 325 -324 -302 1
w 326 325 303 1
w 326 325 -303 1
w 326 -325 303 1
w 326 -325 -303 0
w 327 326 304 0.751945
w 327 326 -304 0.709263
w 327 -326 304 0.469508
w 327 -326 -304 0.932287
w 328 327 305 1
w 328 327 -305 0
w 328 -327 305 1
w 328 -327 -305 1
w 329 328 306 1
w 329 328 -306 1
w 329 -328 306 1
w 329 -328 -306 0
w 330 329 307 0
w 330 329 -307 1
w 330 -329 307 1
w 330 -329 -307 0
w 331 330 308 0
w 331 330 -308 1
w 331 -330 308 0
w 331 -330 -308 0
w 332 331 309 1
w 332 331 -309 1
w 332 -331 309 0
w 332 -331 -309 0
w 333 332 310 1
w 333 332 -310 0
w 333 -332 310 0
w 333 -332 -310 1
w 334 333 311 1
w 334 333 -311 1
w 334 -333 311 1
w 334 -333 -311 0
w 335 334 312 0
w 335 334 -312 0
w 335 -334 312 1
w 335 -334 -312 1
w 336 335 313 0
w 336 335 -313 1
w 336 -335 313 0
w 336 -335 -313 1
w 337 336 314 0
w 337 336 -314 1
w 337 -336 314 1
w 337 -336 -314 0
w 338 337 315 0
w 338 337 -315 1
w 338 -337 315 1
w 338 -337 -315 0
w 339 338 316 1
w 339 338 -316 1
w 339 -338 316 0
w 339 -338 -316 0
w 340 339 317 0.228449
w 340 339 -317 0.904474
w 340 -339 317 0.106244
w 340 -339 -317 0.968055
w 341 340 318 0
w 341 340 -318 1
w 341 -340 318 0
w 341 -340 -318 1
w 342 341 319 0
w 342 341 -319 1
w 342 -341 319 0
w 342 -341 -319 0
w 343 342 320 1
w 343 342 -320 0
w 343 -342 320 0
w 343 -342 -320 0
w 344 343 321 0
w 344 343 -321 0
w 344 -343 321 1
w 344 -343 -321 0
w 345 344 322 1
w 345 344 -322 1
w 345 -344 322 0
w 345 -344 -322 1
w 346 323 1
w 346 -323 0
w 347 346 324 0.531495
w 347 346 -324 0.436015
w 347 -346 324 0.800467
w 347 -346 -324 0.736781
w 348 347 325 0
w 348 347 -325 1
w 348 -347 325 0
w 348 -347 -325 1
w 349 348 326 0
w 349 348 -326 1
w 349 -348 326 0
w 349 -348 -326 1
w 350 349 327 0
w 350 349 -327 1
w 350 -349 327 1
w 350 -349 -327 1
w 351 350 328 1
w 351 350 -328 0
w 351 -350 328 0
w 351 -350 -328 0
w 352 351 329 1
w 352 351 -329 1
w 352 -351 329 0
w 352 -351 -329 1
w 353 352 330 0.120271
w 353 352 -330 0.163599
w 353 -352 330 0.187949
w 353 -352 -330 0.920737
w 354 353 331 0.248318
w 354 353 -331 0.64248
w 354 -353 331 0.512187
w 354 -353 -331 0.598885
w 355 354 332 0.0523173
w 355 354 -332 0.225529
w 355 -354 332 0.453008
w 355 -354 -332 0.14857
w 356 355 333 0.198232
w 356 355 -333 0.749948
w 356 -355 333 0.322372
w 356 -355 -333 0.94866
w 357 356 334 0
w 357 356 -334 0
w 357 -356 334 1
w 357 -356 -334 0
w 358 357 335 1
w 358 357 -335 0
w 358 -357 335 0
w 358 -357 -335 1
w 359 358 336 0.826907
w 359 358 -336 0.682753
w 359 -358 336 0.958664
w 359 -358 -336 0.0148558
w 360 359 337 1
w 360 359 -337 0
w 360 -359 337 0
w 360 -359 -337 0
w 361 360 338 1
w 361 360 -338 0
w 361 -360 338 0
w 361 -360 -338 1
w 362 361 339 0.695871
w 362 361 -339 0.322066
w 362 -361 339 0.319785
w 362 -361 -339 0.644532
w 363 362 340 0.874967
w 363 362 -340 0.350102
w 363 -362 340 0.50738
w 363 -362 -340 0.0328465
w 364 363 341 0
w 364 363 -341 0
w 364 -363 341 0
w 364 -363 -341 1
w 365 364 342 0.0272379
w 365 364 -342 0.949536
w 365 -364 342 0.919649
w 365 -364 -342 0.630728
w 366 365 343 0.182822
w 366 365 -343 0.876698
w 366 -365 343 0.179811
w 366 -365 -343 0.044881
w 367 366 344 0.60336
w 367 366 -344 0.132469
w 367 -366 344 0.418969
w 367 -366 -344 0.175478
w 368 367 345 0
w 368 367 -345 0
w 368 -367 345 0
w 368 -367 -345 1
w 369 346 0
w 369 -346 1
w 370 369 347 1
w 370 369 -347 0
w 370 -369 347 1
w 370 -369 -347 0
w 371 370 348 0
w 371 370 -348 0
w 371 -370 348 0
w 371 -370 -348 1
w 372 371 349 1
w 372 371 -349 0
w 372 -371 349 1
w 372 -371 -349 1
w 373 372 350 1
w 373 372 -350 0
w 373 -372 350 1
w 373 -372 -350 0
w 374 373 351 1
w 374 373 -351 0
w 374 -373 351 1
w 374 -373 -351 1
w 375 374 352 1
w 375 374 -352 1
w 375 -374 352 0
w 375 -374 -352 1
w 376 375 353 1
w 376 375 -353 0
w 376 -375 353 0
w 376 -375 -353 1
w 377 376 354 0.189832
w 377 376 -354 0.209374
w 377 -376 354 0.845893
w 377 -376 -354 0.733991
w 378 377 355 0
w 378 377 -355 0
w 378 -377 355 0
w 378 -377 -355 1
w 379 378 356 0
w 379 378 -356 1
w 379 -378 356 0
w 379 -378 -356 0
w 380 379 357 0
w 380 379 -357 1
w 380 -379 357 1
w 380 -379 -357 1
w 381 380 358 0
w 381 380 -358 0
w 381 -380 358 0
w 381 -380 -358 1
w 382 381 359 1
w 382 381 -359 0
w 382 -381 359 1
w 382 -381 -359 1
w 383 382 360 1
w 383 382 -360 0
w 383 -382 360 0
w 383 -382 -360 0
w 384 383 361 0.948725
w 384 383 -361 0.660308
w 384 -383 361 0.230942
w 384 -383 -361 0.575956
w 385 384 362 1
w 385 384 -362 1
w 385 -384 362 0
w 385 -384 -362 1
w 386 385 363 0
w 386 385 -363 0
w 386 -385 363 1
w 386 -385 -363 1
w 387 386 364 0
w 387 386 -364 1
w 387 -386 364 1
w 387 -386 -364 1
w 388 387 365 0
w 388 387 -365 1
w 388 -387 365 0
w 388 -387 -365 0
w 389 388 366 0
w 389 388 -366 0
w 389 -388 366 1
w 389 -388 -366 0
w 390 389 367 0
w 390 389 -367 1
w 390 -389 367 1
w 390 -389 -367 1
w 391 390 368 1
w 391 390 -368 0
w 391 -390 368 0
w 391 -390 -368 0
w 392 369 0
w 392 -369 1
w 393 392 370 0
w 393 392 -370 1
w 393 -392 370 0
w 393 -392 -370 1
w 394 393 371 1
w 394 393 -371 0
w 394 -393 371 0
w 394 -393 -371 0
w 395 394 372 0
w 395 394 -372 0
w 395 -394 372 1
w 395 -394 -372 1
w 396 395 373 1
w 396 395 -373 0
w 396 -395 373 0
w 396 -395 -373 0
w 397 396 374 1
w 397 396 -374 1
w 397 -396 374 1
w 397 -396 -374 0
w 398 397 375 0
w 398 397 -375 0
w 398 -397 375 1
w 398 -397 -375 0
w 399 398 376 0
w 399 398 -376 0
w 399 -398 376 1
w 399 -398 -376 0
w 400 399 377 0
w 400 399 -377 0
w 400 -399 377 0
w 400 -399 -377 1
w 401 400 378 0
w 401 400 -378 0
w 401 -400 378 1
w 401 -400 -378 0
w 402 401 379 0.803314
w 402 401 -379 0.424201
w 402 -401 379 0.121681
w 402 -401 -379 0.476707
w 403 402 380 1
w 403 402 -380 1
w 403 -402 380 1
w 403 -402 -380 0
w 404 403 381 0
w 404 403 -381 1
w 404 -403 381 0
w 404 -403 -381 1
w 405 404 382 0.492594
w 405 404 -382 0.446019
w 405 -404 382 0.727128
w 405 -404 -382 0.712242
w 406 405 383 0
w 406 405 -383 1
w 406 -405 383 1
w 406 -405 -383 0
w 407 406 384 0.254591
w 407 406 -384 0.765169
w 407 -406 384 0.627997
w 407 -406 -384 0.70668
w 408 407 385 0
w 408 407 -385 1
w 408 -407 385 0
w 408 -407 -385 0
w 409 408 386 1
w 409 408 -386 1
w 409 -408 386 0
w 409 -408 -386 1
w 410 409 387 0.389876
w 410 409 -387 0.76058
w 410 -409 387 0.985841
w 410 -409 -387 0.0799287
w 411 410 388 0
w 411 410 -388 1
w 411 -410 388 0
w 411 -410 -388 0
w 412 411 389 0
w 412 411 -389 1
w 412 -411 389 1
w 412 -411 -389 1
w 413 412 390 1
w 413 412 -390 1
w 413 -412 390 1
w 413 -412 -390 0
w 414 413 391 0.478813
w 414 413 -391 0.944526
w 414 -413 391 0.803164
w 414 -413 -391 0.612405
w 415 392 0
w 415 -392 1
w 416 415 393 1
w 416 415 -393 1
w 416 -415 393 0
w 416 -415 -393 0
w 417 416 394 0
w 417 416 -394 0
w 417 -416 394 1
w 417 -416 -394 0
w 418 417 395 1
w 418 417 -395 0
w 418 -417 395 0
w 418 -417 -395 0
w 419 418 396 1
w 419 418 -396 1
w 419 -418 396 1
w 419 -418 -396 0
w 420 419 397 0
w 420 419 -397 0
w 420 -419 397 1
w 420 -419 -397 0
w 421 420 398 0
w 421 420 -398 1
w 421 -420 398 1
w 421 -420 -398 0
w 422 421 399 0.545927
w 422 421 -399 0.970337
w 422 -421 399 0.804226
w 422 -421 -399 0.438121
w 423 422 400 1
w 423 422 -400 0
w 423 -422 400 0
w 423 -422 -400 1
w 424 423 401 1
w 424 423 -401 1
w 424 -423 401 0
w 424 -423 -401 1
w 425 424 402 0.39181
w 425 424 -402 0.922336
w 425 -424 402 0.516991
w 425 -424 -402 0.347867
w 426 425 403 0
w 426 425 -403 1
w 426 -425 403 1
w 426 -425 -403 1
w 427 426 404 0
w 427 426 -404 1
w 427 -426 404 1
w 427 -426 -404 1
w 428 427 405 0
w 428 427 -405 1
w 428 -427 405 0
w 428 -427 -405 0
w 429 428 406 0
w 429 428 -406 1
w 429 -428 406 1
w 429 -428 -406 0
w 430 429 407 1
w 430 429 -407 0
w 430 -429 407 0
w 430 -429 -407 0
w 431 430 408 1
w 431 430 -408 0
w 431 -430 408 0
w 431 -430 -408 0
w 432 431 409 1
w 432 431 -409 0
w 432 -431 409 1
w 432 -431 -409 0
w 433 432 410 1
w 433 432 -410 1
w 433 -432 410 1
w 433 -432 -410 0
w 434 433 411 0.336044
w 434 433 -411 0.291368
w 434 -433 411 0.575127
w 434 -433 -411 0.00407963
w 435 434 412 0.759517
w 435 434 -412 0.173866
w 435 -434 412 0.152708
w 435 -434 -412 0.434332
w 436 435 413 1
w 436 435 -413 0
w 436 -435 413 0
w 436 -435 -413 1
w 437 436 414 1
w 437 436 -414 0
w 437 -436 414 1
w 437 -436 -414 1
w 438 415 1
w 438 -415 0
w 439 438 416 1
w 439 438 -416 0
w 439 -438 416 1
w 439 -438 -416 1
w 440 439 417 0
w 440 439 -417 0
w 440 -439 417 1
w 440 -439 -417 0
w 441 440 418 0.958666
w 441 440 -418 0.15703
w 441 -440 418 0.86025
w 441 -440 -418 0.788903
w 442 441 419 0.0341155
w 442 441 -419 0.941611
w 442 -441 419 0.350879
w 442 -441 -419 0.323833
w 443 442 420 0.60888
w 443 442 -420 0.759816
w 443 -442 420 0.393119
w 443 -442 -420 0.767554
w 444 443 421 1
w 444 443 -421 1
w 444 -443 421 0
w 444 -443 -421 1
w 445 444 422 0
w 445 444 -422 0
w 445 -444 422 0
w 445 -444 -422 1
w 446 445 423 0.804495
w 446 445 -423 0.573176
w 446 -445 423 0.380452
w 446 -445 -423 0.471793
w 447 446 424 0
w 447 446 -424 1
w 447 -446 424 0
w 447 -446 -424 1
w 448 447 425 0
w 448 447 -425 0
w 448 -447 425 0
w 448 -447 -425 1
w 449 448 426 0
w 449 448 -426 1
w 449 -448 426 0
w 449 -448 -426 0
w 450 449 427 0.696915
w 450 449 -427 0.0971334
w 450 -449 427 0.174679
w 450 -449 -427 0.110472
w 451 450 428 0
w 451 450 -428 1
w 451 -450 428 1
w 451 -450 -428 0
w 452 451 429 1
w 452 451 -429 0
w 452 -451 429 0
w 452 -451 -429 1
w 453 452 430 0
w 453 452 -430 1
w 453 -452 430 1
w 453 -452 -430 1
w 454 453 431 1
w 454 453 -431 1
w 454 -453 431 1
w 454 -453 -431 0
w 455 454 432 0
w 455 454 -432 0
w 455 -454 432 0
w 455 -454 -432 1
w 456 455 433 1
w 456 455 -433 0
w 456 -455 433 0
w 456 -455 -433 1
w 457 456 434 1
w 457 456 -434 1
w 457 -456 434 0
w 457 -456 -434 0
w 458 457 435 1
w 458 457 -435 1
w 458 -457 435 0
w 458 -457 -435 0
w 459 458 436 0.895945
w 459 458 -436 0.706059
w 459 -458 436 0.871879
w 459 -458 -436 0.781507
w 460 459 437 0
w 460 459 -437 1
w 460 -459 437 1
w 460 -459 -437 1
w 461 438 0
w 461 -438 1
w 462 461 439 0.331492
w 462 461 -439 0.405782
w 462 -461 439 0.837591
w 462 -461 -439 0.81704
w 463 462 440 0
w 463 462 -440 1
w 463 -462 440 0
w 463 -462 -440 1
w 464 463 441 1
w 464 463 -441 0
w 464 -463 441 1
w 464 -463 -441 0
w 465 464 442 0.29955
w 465 464 -442 0.995833
w 465 -464 442 0.196864
w 465 -464 -442 0.156183
w 466 465 443 0.902923
w 466 465 -443 0.0280622
w 466 -465 443 0.673285
w 466 -465 -443 0.275549
w 467 466 444 1
w 467 466 -444 0
w 467 -466 444 1
w 467 -466 -444 0
w 468 467 445 1
w 468 467 -445 1
w 468 -467 445 0
w 468 -467 -445 1
w 469 468 446 0.716712
w 469 468 -446 0.448851
w 469 -468 446 0.260299
w 469 -468 -446 0.53546
w 470 469 447 0
w 470 469 -447 0
w 470 -469 447 1
w 470 -469 -447 1
w 471 470 448 1
w 471 470 -448 0
w 471 -470 448 1
w 471 -470 -448 0
w 472 471 449 0
w 472 471 -449 0
w 472 -471 449 1
w 472 -471 -449 0
w 473 472 450 0
w 473 472 -450 1
w 473 -472 450 0
w 473 -472 -450 1
w 474 473 451 1
w 474 473 -451 0
w 474 -473 451 0
w 474 -473 -451 1
w 475 474 452 0.924685
w 475 474 -452 0.767405
w 475 -474 452 0.373393
w 475 -474 -452 0.184983
w 476 475 453 0
w 476 475 -453 1
w 476 -475 453 1
w 476 -475 -453 1
w 477 476 454 0
w 477 476 -454 0
w 477 -476 454 1
w 477 -476 -454 0
w 478 477 455 0.38297
w 478 477 -455 0.0573228
w 478 -477 455 0.320268
w 478 -477 -455 0.131778
w 479 478 456 1
w 479 478 -456 0
w 479 -478 456 1
w 479 -478 -456 0
w 480 479 457 0
w 480 479 -457 1
w 480 -479 457 1
w 480 -479 -457 0
w 481 480 458 0
w 481 480 -458 1
w 481 -480 458 1
w 481 -480 -458 0
w 482 481 459 0
w 482 481 -459 1
w 482 -481 459 0
w 482 -481 -459 1
w 483 482 460 0
w 483 482 -460 1
w 483 -482 460 0
w 483 -482 -460 0
w 484 461 0
w 484 -461 1
w 485 484 462 0.419389
w 485 484 -462 0.09901
w 485 -484 462 0.0212796
w 485 -484 -462 0.00621627
w 486 485 463 0.461582
w 486 485 -463 0.665945
w 486 -485 463 0.536924
w 486 -485 -463 0.922456
w 487 486 464 1
w 487 486 -464 0
w 487 -486 464 0
w 487 -486 -464 0
w 488 487 465 0.590641
w 488 487 -465 0.322403
w 488 -487 465 0.53175
w 488 -487 -465 0.73024
w 489 488 466 0
w 489 488 -466 1
w 489 -488 466 1
w 489 -488 -466 0
w 490 489 467 1
w 490 489 -467 0
w 490 -489 467 1
w 490 -489 -467 1
w 491 490 468 1
w 491 490 -468 0
w 491 -490 468 0
w 491 -490 -468 0
w 492 491 469 0.24928
w 492 491 -469 0.104746
w 492 -491 469 0.806061
w 492 -491 -469 0.93386
w 493 492 470 1
w 493 492 -470 1
w 493 -492 470 0
w 493 -492 -470 1
w 494 493 471 0
w 494 493 -471 0
w 494 -493 471 1
w 494 -493 -471 0
w 495 494 472 0.814273
w 495 494 -472 0.356103
w 495 -494 472 0.621304
w 495 -494 -472 0.818983
w 496 495 473 0
w 496 495 -473 1
w 496 -495 473 1
w 496 -495 -473 1
w 497 496 474 1
w 497 496 -474 1
w 497 -496 474 0
w 497 -496 -474 1
w 498 497 475 1
w 498 497 -475 1
w 498 -497 475 0
w 498 -497 -475 0
w 499 498 476 0
w 499 498 -476 1
w 499 -498 476 0
w 499 -498 -476 0
w 500 499 477 0
w 500 499 -477 0
w 500 -499 477 1
w 500 -499 -477 1
w 501 500 478 0
w 501 500 -478 1
w 501 -500 478 0
w 501 -500 -478 1
w 502 501 479 0
w 502 501 -479 0
w 502 -501 479 0
w 502 -501 -479 1
w 503 502 480 1
w 503 502 -480 1
w 503 -502 480 0
w 503 -502 -480 1
w 504 503 481 1
w 504 503 -481 0
w 504 -503 481 0
w 504 -503 -481 1
w 505 504 482 0
w 505 504 -482 0
w 505 -504 482 0
w 505 -504 -482 1
w 506 505 483 1
w 506 505 -483 1
w 506 -505 483 0
w 506 -505 -483 0
w 507 484 0
w 507 -484 1
w 508 507 485 0
w 508 507 -485 1
w 508 -507 485 1
w 508 -507 -485 0
w 509 508 486 1
w 509 508 -486 0
w 509 -508 486 1
w 509 -508 -486 1
w 510 509 487 0
w 510 509 -487 1
w 510 -509 487 1
w 510 -509 -487 0
w 511 510 488 0.359819
w 511 510 -488 0.182966
w 511 -510 488 0.234322
w 511 -510 -488 0.047085
w 512 511 489 0
w 512 511 -489 0
w 512 -511 489 0
w 512 -511 -489 1
w 513 512 490 0
w 513 512 -490 1
w 513 -512 490 1
w 513 -512 -490 0
w 514 513 491 1
w 514 513 -491 0
w 514 -513 491 1
w 514 -513 -491 0
w 515 514 492 0
w 515 514 -492 1
w 515 -514 492 1
w 515 -514 -492 1
w 516 515 493 1
w 516 515 -493 1
w 516 -515 493 1
w 516 -515 -493 0
w 517 516 494 0.40405
w 517 516 -494 0.555806
w 517 -516 494 0.172316
w 517 -516 -494 0.638372
w 518 517 495 0
w 518 517 -495 0
w 518 -517 495 0
w 518 -517 -495 1
w 519 518 496 1
w 519 518 -496 1
w 519 -518 496 1
w 519 -518 -496 0
w 520 519 497 0
w 520 519 -497 1
w 520 -519 497 0
w 520 -519 -497 1
w 521 520 498 0
w 521 520 -498 0
w 521 -520 498 0
w 521 -520 -498 1
w 522 521 499 0.225521
w 522 521 -499 0.7531
w 522 -521 499 0.0684563
w 522 -521 -499 0.214871
w 523 522 500 0
w 523 522 -500 0
w 523 -522 500 0
w 523 -522 -500 1
w 524 523 501 1
w 524 523 -501 1
w 524 -523 501 0
w 524 -523 -501 1
w 525 524 502 1
w 525 524 -502 0
w 525 -524 502 0
w 525 -524 -502 0
w 526 525 503 0
w 526 525 -503 1
w 526 -525 503 1
w 526 -525 -503 1
w 527 526 504 0
w 527 526 -504 0
w 527 -526 504 1
w 527 -526 -504 0
w 528 527 505 0.235794
w 528 527 -505 0.105328
w 528 -527 505 0.680747
w 528 -527 -505 0.30425
w 529 528 506 0
w 529 528 -506 0
w 529 -528 506 1
w 529 -528 -506 0